p cnf 20 50
17 -1 4 0
-15 5 -16 0
-7 3 -1 0
-9 -14 20 0
-9 8 -20 0
-4 -9 -20 0
20 -3 2 0
8 -18 -19 0
-14 13 -18 0
16 1 -18 0
-2 -7 -13 0
8 16 -2 0
19 -12 -16 0
11 15 -10 0
-4 12 9 0
-5 -12 -4 0
14 -3 -17 0
-9 3 8 0
3 -14 12 0
18 -2 4 0
-7 -1 14 0
-18 8 -7 0
3 -9 16 0
6 20 -15 0
17 10 9 0
5 7 -13 0
9 13 18 0
-18 11 20 0
19 -15 -14 0
-14 -7 1 0
-2 14 19 0
-15 12 10 0
-13 20 -14 0
14 -19 4 0
-2 -1 -20 0
-11 16 -20 0
8 -19 4 0
11 6 -10 0
-8 -20 -18 0
10 -12 -15 0
4 -20 3 0
15 3 4 0
10 -3 -13 0
18 4 -7 0
-6 -14 -19 0
2 -18 -8 0
-1 -17 12 0
9 15 1 0
-19 -5 11 0
17 -9 -10 0
